solution status: optimal solution found
objective value:                                   17
x25                                                 1 	(obj:1)
x28                                                 1 	(obj:1)
x29                                                 1 	(obj:1)
x30                                                 1 	(obj:1)
x35                                                 1 	(obj:1)
x37                                                 1 	(obj:1)
x40                                                 1 	(obj:1)
x41                                                 1 	(obj:1)
x44                                                 1 	(obj:1)
x45                                                 1 	(obj:1)
x46                                                 1 	(obj:1)
x51                                                 1 	(obj:1)
x60                                                 1 	(obj:1)
x61                                                 1 	(obj:1)
x62                                                 1 	(obj:1)
x63                                                 1 	(obj:1)
x64                                                 1 	(obj:1)
one.thingy.devices[3].thingy.circulate1_y                   22 	(obj:0)
one.thingy.devices[3].thingy.circulate1_z                   18 	(obj:0)
one.pump_a[2].hole_y                               16 	(obj:0)
one.pump_a[2].hole_z                               17 	(obj:0)
one.pump_b[1].hole_y                               18 	(obj:0)
one.pump_b[1].hole_z                               16 	(obj:0)
one.thingy.devices[1].thingy.vs2_y                   21 	(obj:0)
one.thingy.devices[1].thingy.vs2_z                   21 	(obj:0)
one.thingy.devices[2].thingy.vs2_y                   21 	(obj:0)
one.thingy.devices[2].thingy.vs2_z                   18 	(obj:0)
one.pump_a[2].flush_y                              18 	(obj:0)
one.pump_a[2].flush_z                              14 	(obj:0)
one.thingy.devices[1].thingy.circulate1_y                   23 	(obj:0)
one.thingy.devices[1].thingy.circulate1_z                   22 	(obj:0)
one.thingy.devices[0].thingy.vs2_y                   22 	(obj:0)
one.thingy.devices[0].thingy.vs2_z                   20 	(obj:0)
one.thingy.devices[3].thingy.vs2_y                   22 	(obj:0)
one.thingy.devices[3].thingy.vs2_z                   17 	(obj:0)
one.thingy.devices[2].thingy.circulate1_y                   23 	(obj:0)
one.thingy.devices[2].thingy.circulate1_z                   20 	(obj:0)
one.pump_b[1].flush_y                              18 	(obj:0)
one.pump_b[1].flush_z                              13 	(obj:0)
one.thingy.devices[0].thingy.circulate1_y                   20 	(obj:0)
one.thingy.devices[0].thingy.circulate1_z                   21 	(obj:0)
